decision_x1=[0,2];
decision_x2=[0,2];
decision_x3=[0,2];
decision_x4=[0,2];
decision_x5=[0,2];
decision_x6=[0,2];
decision_x7=[0,2];
decision_x8=[0,2];
decision_x9=[0,2];
decision_x10=[0,2];
random_y1=[0,2];
random_y2=[0,2];
constraint_x2_x1=[
0,0,4.5|
0,1,0.66|
0,2,8.4|
1,0,7.2|
1,1,6.2|
1,2,0.35|
2,0,3.9|
2,1,3.9|
2,2,2.9|
];
constraint_x3_x1=[
0,0,4|
0,1,9|
0,2,5.9|
1,0,0.46|
1,1,6.8|
1,2,9.3|
2,0,9.4|
2,1,2.9|
2,2,6.1|
];
constraint_x4_x1=[
0,0,0.99|
0,1,2.3|
0,2,0.86|
1,0,2.5|
1,1,5|
1,2,1.4|
2,0,7.4|
2,1,8.5|
2,2,9.3|
];
constraint_x5_x4=[
0,0,5.4|
0,1,9.8|
0,2,3.9|
1,0,4.4|
1,1,1.7|
1,2,3.8|
2,0,8.8|
2,1,0.87|
2,2,1.8|
];
constraint_x6_x5=[
0,0,9.5|
0,1,4.9|
0,2,4.3|
1,0,8.7|
1,1,6.1|
1,2,2.6|
2,0,2.9|
2,1,4.4|
2,2,6.9|
];
constraint_x7_x1=[
0,0,8.4|
0,1,0.81|
0,2,8.8|
1,0,9.7|
1,1,8.2|
1,2,9.4|
2,0,2.2|
2,1,4.2|
2,2,5.4|
];
constraint_x7_x3=[
0,0,4.9|
0,1,3.6|
0,2,6.1|
1,0,7.8|
1,1,5.6|
1,2,6|
2,0,1.2|
2,1,3.7|
2,2,4.8|
];
constraint_x7_x4=[
0,0,1.2|
0,1,1|
0,2,0.46|
1,0,9.2|
1,1,6.8|
1,2,3.4|
2,0,0.35|
2,1,1.2|
2,2,0.91|
];
constraint_x7_x5=[
0,0,0.0092|
0,1,6.4|
0,2,4.4|
1,0,6|
1,1,0.49|
1,2,4.9|
2,0,6|
2,1,9.9|
2,2,7|
];
constraint_x8_x1=[
0,0,7.8|
0,1,1.2|
0,2,5.6|
1,0,1.4|
1,1,1.3|
1,2,3.2|
2,0,9.2|
2,1,2.8|
2,2,2.3|
];
constraint_x8_x4=[
0,0,6.9|
0,1,2.3|
0,2,5.9|
1,0,3.7|
1,1,1.9|
1,2,2.3|
2,0,9.8|
2,1,8.3|
2,2,8.3|
];
constraint_x8_x7=[
0,0,0.0074|
0,1,8.7|
0,2,7.1|
1,0,4|
1,1,2.2|
1,2,4.8|
2,0,3.2|
2,1,9.4|
2,2,3.3|
];
constraint_x9_x1=[
0,0,3.3|
0,1,8.8|
0,2,1.2|
1,0,2.5|
1,1,4.3|
1,2,4.6|
2,0,4.2|
2,1,5|
2,2,0.64|
];
constraint_x9_x2=[
0,0,9.8|
0,1,4.2|
0,2,0.85|
1,0,6.5|
1,1,4.6|
1,2,9.6|
2,0,4.6|
2,1,1.8|
2,2,9|
];
constraint_x9_x4=[
0,0,7.1|
0,1,2|
0,2,4.4|
1,0,2.8|
1,1,8.1|
1,2,5.8|
2,0,8.5|
2,1,3.8|
2,2,4.4|
];
constraint_x9_x8=[
0,0,5.5|
0,1,1.9|
0,2,5.3|
1,0,0.8|
1,1,8.1|
1,2,6.9|
2,0,6.1|
2,1,4.7|
2,2,9.2|
];
constraint_x10_x2=[
0,0,1.5|
0,1,3|
0,2,3.3|
1,0,5.2|
1,1,2.2|
1,2,5.9|
2,0,1.6|
2,1,4.1|
2,2,4|
];
constraint_x10_x3=[
0,0,3.6|
0,1,4.9|
0,2,5.5|
1,0,1.4|
1,1,8.5|
1,2,9.5|
2,0,7.2|
2,1,5.7|
2,2,0.88|
];
constraint_x10_x5=[
0,0,3.4|
0,1,7.5|
0,2,1.4|
1,0,8.1|
1,1,8.3|
1,2,5.9|
2,0,7.1|
2,1,2.7|
2,2,9.9|
];
constraint_x10_x6=[
0,0,8.5|
0,1,8|
0,2,2.3|
1,0,8.9|
1,1,0.31|
1,2,1|
2,0,4.2|
2,1,9.9|
2,2,2.6|
];
constraint_x10_x7=[
0,0,1.5|
0,1,2.1|
0,2,10|
1,0,2.3|
1,1,7.5|
1,2,7.1|
2,0,2|
2,1,9.7|
2,2,2.4|
];
constraint_x10_x8=[
0,0,5|
0,1,8.9|
0,2,9.3|
1,0,9.1|
1,1,4.8|
1,2,7.5|
2,0,2.1|
2,1,2.3|
2,2,5.1|
];
constraint_x10_x9=[
0,0,6.5|
0,1,2.6|
0,2,8.4|
1,0,1.6|
1,1,3.6|
1,2,5.7|
2,0,3.6|
2,1,8|
2,2,1.6|
];
constraint_x1_y1=[
0,0,9.9|
0,1,2.3|
0,2,7.3|
1,0,7.3|
1,1,7.9|
1,2,3.8|
2,0,3.4|
2,1,2.6|
2,2,7.9|
];
constraint_x2_y2=[
0,0,7.8|
0,1,4.8|
0,2,6.3|
1,0,2.1|
1,1,8.4|
1,2,8.3|
2,0,7.4|
2,1,6.4|
2,2,9.2|
];
initial_distribution_y1=[0.34,0.31,0.35];
initial_distribution_y2=[0.26,0.51,0.24];
transition_y1=[
0.49,0.26,0.25|
0.29,0.35,0.36|
0.52,0.013,0.46|
];
transition_y2=[
0.52,0.37,0.11|
0.25,0.49,0.26|
0.37,0.16,0.47|
];
